c Path planning problem for ProbSAT
c Generated by gen_cnf.py
p cnf 75 87
1 2 3 4 5 0
6 7 8 9 10 0
11 12 13 14 15 0
16 17 18 19 20 0
21 22 23 24 25 0
26 27 28 29 30 0
31 32 33 34 35 0
36 37 38 39 40 0
41 42 43 44 45 0
46 47 48 49 50 0
51 52 53 54 55 0
56 57 58 59 60 0
61 62 63 64 65 0
66 67 68 69 70 0
71 72 73 74 75 0
-1 6 7 0
-2 7 6 8 0
-3 8 9 7 0
-4 9 10 8 0
-5 10 9 0
-6 11 12 0
-7 12 11 13 0
-8 13 14 12 0
-9 14 15 13 0
-10 15 14 0
-11 16 17 0
-12 17 16 18 0
-13 18 19 17 0
-14 19 20 18 0
-15 20 19 0
-16 21 22 0
-17 22 21 23 0
-18 23 24 22 0
-19 24 25 23 0
-20 25 24 0
-21 26 27 0
-22 27 26 28 0
-23 28 29 27 0
-24 29 30 28 0
-25 30 29 0
-26 31 32 0
-27 32 31 33 0
-28 33 34 32 0
-29 34 35 33 0
-30 35 34 0
-31 36 37 0
-32 37 36 38 0
-33 38 39 37 0
-34 39 40 38 0
-35 40 39 0
-36 41 42 0
-37 42 41 43 0
-38 43 44 42 0
-39 44 45 43 0
-40 45 44 0
-41 46 47 0
-42 47 46 48 0
-43 48 49 47 0
-44 49 50 48 0
-45 50 49 0
-46 51 52 0
-47 52 51 53 0
-48 53 54 52 0
-49 54 55 53 0
-50 55 54 0
-51 56 57 0
-52 57 56 58 0
-53 58 59 57 0
-54 59 60 58 0
-55 60 59 0
-56 61 62 0
-57 62 61 63 0
-58 63 64 62 0
-59 64 65 63 0
-60 65 64 0
-61 66 67 0
-62 67 66 68 0
-63 68 69 67 0
-64 69 70 68 0
-65 70 69 0
-66 71 72 0
-67 72 71 73 0
-68 73 74 72 0
-69 74 75 73 0
-70 75 74 0
1 0
75 0
